25 62
17 9
11 13
4 5
22 21
16 3
9 15
1 18
13 6
7 23
16 11
19 23
4 15
17 20
17 14
20 7
22 4
25 1
25 6
12 23
10 20
6 14
11 14
14 24
7 5
21 11
24 18
9 21
15 11
19 5
10 8
6 5
7 21
1 15
19 22
8 4
24 10
18 19
2 14
10 3
12 4
25 22
24 20
4 5
11 20
24 2
16 2
1 13
14 16
7 17
12 8
19 5
16 3
3 23
20 15
8 9
5 4
20 4
22 2
25 21
17 25
13 15
3 25
